p cnf 125 435
-3 -1 0
-3 2 0
1 -2 3 0
-5 -3 0
-5 -4 0
3 4 5 0
-8 -6 0
-8 -7 0
6 7 8 0
-5 -8 -9 0
5 8 -9 0
-5 8 9 0
5 -8 9 0
-5 10 -11 0
5 -10 -11 0
-5 -10 11 0
5 10 11 0
12 3 0
12 -1 0
-3 1 -12 0
13 -11 0
13 -12 0
11 12 -13 0
-14 9 0
-14 -13 0
-9 13 14 0
10 5 -15 0
-10 -5 -15 0
10 -5 15 0
-10 5 15 0
16 -17 0
-16 -17 0
15 -17 -18 0
-15 17 -18 0
15 17 18 0
-15 -17 18 0
19 14 0
19 -18 0
-14 18 -19 0
-21 1 0
-21 -11 0
-1 11 21 0
22 -20 0
22 -21 0
20 21 -22 0
25 23 0
25 -24 0
-23 24 -25 0
21 25 -26 0
-21 -25 -26 0
21 -25 26 0
-21 25 26 0
27 22 0
27 26 0
-22 -26 -27 0
28 -7 0
28 27 0
7 -27 -28 0
28 23 -29 0
-28 -23 -29 0
28 -23 29 0
-28 23 29 0
29 20 -30 0
-29 -20 -30 0
29 -20 30 0
-29 20 30 0
31 19 0
31 30 0
-19 -30 -31 0
-33 7 0
-33 32 0
-7 -32 33 0
34 33 0
34 20 0
-33 -20 -34 0
-35 34 0
-35 -16 0
-34 16 35 0
36 31 0
36 35 0
-31 -35 -36 0
37 25 0
37 10 0
-25 -10 -37 0
38 -4 0
38 -8 0
4 8 -38 0
39 38 0
39 -25 0
-38 25 -39 0
-37 -39 -40 0
37 39 -40 0
-37 39 40 0
37 -39 40 0
41 -5 0
41 38 0
5 -38 -41 0
42 -32 0
42 -41 0
32 41 -42 0
-10 -2 -44 0
10 2 -44 0
-10 2 44 0
10 -2 44 0
-45 43 0
-45 -44 0
-43 44 45 0
-46 42 0
-46 -45 0
-42 45 46 0
-47 27 0
-47 1 0
-27 -1 47 0
23 -48 0
-23 -48 0
49 -7 0
49 -26 0
7 26 -49 0
-50 49 0
-50 -41 0
-49 41 50 0
51 48 0
51 -50 0
-48 50 -51 0
52 51 0
52 -38 0
-51 38 -52 0
-53 47 0
-53 -52 0
-47 52 53 0
-54 32 0
-54 -10 0
-32 10 54 0
-55 -11 0
-55 -54 0
11 54 55 0
-53 -55 -56 0
53 55 -56 0
-53 55 56 0
53 -55 56 0
57 -46 0
57 56 0
46 -56 -57 0
-23 1 -58 0
23 -1 -58 0
-23 -1 58 0
23 1 58 0
-59 -57 0
-59 -58 0
57 58 59 0
40 -59 -60 0
-40 59 -60 0
40 59 60 0
-40 -59 60 0
-61 -36 0
-61 60 0
36 -60 61 0
62 -2 0
62 27 0
2 -27 -62 0
-63 -49 0
-63 -48 0
49 48 63 0
63 4 -64 0
-63 -4 -64 0
63 -4 64 0
-63 4 64 0
-4 -32 -65 0
4 32 -65 0
-4 32 65 0
4 -32 65 0
66 -64 0
66 65 0
64 -65 -66 0
2 -32 -67 0
-2 32 -67 0
2 32 67 0
-2 -32 67 0
-68 38 0
-68 -67 0
-38 67 68 0
-66 -68 -69 0
66 68 -69 0
-66 68 69 0
66 -68 69 0
62 69 -70 0
-62 -69 -70 0
62 -69 70 0
-62 69 70 0
-71 -23 0
-71 -38 0
23 38 71 0
-70 71 -72 0
70 -71 -72 0
-70 -71 72 0
70 71 72 0
73 -8 0
73 -33 0
8 33 -73 0
74 73 0
74 -38 0
-73 38 -74 0
-75 -3 0
-75 74 0
3 -74 75 0
-72 75 -76 0
72 -75 -76 0
-72 -75 76 0
72 75 76 0
-77 9 0
-77 -20 0
-9 20 77 0
78 76 0
78 77 0
-76 -77 -78 0
-79 73 0
-79 -23 0
-73 23 79 0
-80 5 0
-80 -25 0
-5 25 80 0
81 79 0
81 -80 0
-79 80 -81 0
-78 81 -82 0
78 -81 -82 0
-78 -81 82 0
78 81 82 0
83 61 0
83 -82 0
-61 82 -83 0
-84 -2 0
-84 22 0
2 -22 84 0
86 -84 0
86 -85 0
84 85 -86 0
-88 87 0
-88 -20 0
-87 20 88 0
89 88 0
89 25 0
-88 -25 -89 0
-90 86 0
-90 89 0
-86 -89 90 0
91 -24 0
91 10 0
24 -10 -91 0
92 -6 0
92 26 0
6 -26 -92 0
-93 -91 0
-93 92 0
91 -92 93 0
-34 91 -94 0
34 -91 -94 0
-34 -91 94 0
34 91 94 0
-95 93 0
-95 94 0
-93 -94 95 0
-96 -90 0
-96 95 0
90 -95 96 0
-97 33 0
-97 -22 0
-33 22 97 0
-65 84 -98 0
65 -84 -98 0
-65 -84 98 0
65 84 98 0
99 33 0
99 -98 0
-33 98 -99 0
34 -38 -100 0
-34 38 -100 0
34 38 100 0
-34 -38 100 0
101 16 0
101 -44 0
-16 44 -101 0
-102 -22 0
-102 101 0
22 -101 102 0
103 100 0
103 102 0
-100 -102 -103 0
50 -10 -104 0
-50 10 -104 0
50 10 104 0
-50 -10 104 0
105 103 0
105 -104 0
-103 104 -105 0
-16 -73 -106 0
16 73 -106 0
-16 73 106 0
16 -73 106 0
105 106 -107 0
-105 -106 -107 0
105 -106 107 0
-105 106 107 0
-49 -32 -108 0
49 32 -108 0
-49 32 108 0
49 -32 108 0
-109 28 0
-109 108 0
-28 -108 109 0
-110 29 0
-110 5 0
-29 -5 110 0
-111 109 0
-111 -110 0
-109 110 111 0
112 107 0
112 -111 0
-107 111 -112 0
47 -9 -113 0
-47 9 -113 0
47 9 113 0
-47 -9 113 0
114 67 0
114 -113 0
-67 113 -114 0
115 54 0
115 -4 0
-54 4 -115 0
-114 -115 -116 0
114 115 -116 0
-114 115 116 0
114 -115 116 0
117 -47 0
117 25 0
47 -25 -117 0
-118 -116 0
-118 117 0
116 -117 118 0
-112 -118 -119 0
112 118 -119 0
-112 118 119 0
112 -118 119 0
99 119 -120 0
-99 -119 -120 0
99 -119 120 0
-99 119 120 0
121 97 0
121 120 0
-97 -120 -121 0
-122 108 0
-122 -29 0
-108 29 122 0
-123 121 0
-123 122 0
-121 -122 123 0
-124 -96 0
-124 123 0
96 -123 124 0
125 83 0
125 124 0
-83 -124 -125 0
-105 -103 -42 3 96 -6 0
-57 88 -122 73 -62 -94 0
25 -66 -100 27 83 0
11 -112 63 -16 0
-21 7 62 5 0
-68 -80 26 -101 0
28 -6 120 -68 85 105 0
54 -78 33 117 -118 0
-55 -42 49 -2 -120 0
-109 -46 38 73 16 -71 0
122 82 110 0
3 -8 61 0
61 -83 -24 56 91 72 0
-80 -86 -33 -65 106 -120 0
64 -46 -31 -11 0
119 -73 -32 -76 9 0
7 9 78 0
96 -6 94 23 88 0
-114 -53 0
-24 63 -115 0
79 19 -36 92 -111 0
29 77 7 -109 6 31 0
-7 -25 84 -62 -5 0
-108 -29 91 -81 0
-75 -69 -31 0
8 20 -44 -79 0
99 71 -95 -80 0
-99 44 0
123 10 20 -12 -16 0
105 24 0
-9 -50 119 0
-113 99 -74 76 -75 66 0
-26 39 109 20 38 101 0
41 100 -1 -14 0
-64 -86 0
-106 13 41 35 77 0
-80 -49 4 0
64 -89 -107 55 -19 54 0
42 93 56 -43 9 -105 0
-80 -124 72 22 -114 -91 0
-14 15 -122 -60 0
113 47 -40 75 57 0
-122 48 50 0
-118 68 35 -69 -119 -67 0
-106 -96 -52 0
92 -109 0
63 43 0
-2 -39 42 1 0
29 -110 117 66 -89 93 0
8 99 0
28 -13 -119 -10 -66 0
30 -12 -48 0
49 -60 -50 25 0
-74 -120 -3 84 0
-43 90 -40 0
-98 -44 9 -90 -81 -110 0
37 49 -48 0
-16 -52 -117 22 0
103 29 110 0
79 -69 0
-24 78 0
116 125 -103 0
-98 95 0
-57 56 -17 0
-56 9 -50 -120 -75 0
-77 42 0
-5 -63 41 -72 -61 0
-36 5 0
117 -97 -96 -47 0
-96 49 3 0
-31 -3 -103 2 0
-111 -107 87 91 102 0
125 0
